p wcnf 110 165 166 
1 -60 -7 0 
1 -11 -43 0 
1 70 76 0 
1 -58 12 0 
1 98 -71 0 
1 -52 -44 0 
1 -43 -5 0 
1 -21 97 0 
1 -92 -97 0 
1 5 -36 0 
1 -89 2 0 
1 96 -40 0 
1 107 52 0 
1 55 -33 0 
1 54 79 0 
1 -13 -40 0 
1 -86 39 0 
1 -61 -6 0 
1 47 83 0 
1 90 102 0 
1 -11 101 0 
1 -25 -15 0 
1 37 -12 0 
1 -95 66 0 
1 87 -93 0 
1 61 17 0 
1 67 -46 0 
1 107 -92 0 
1 22 91 0 
1 66 -107 0 
1 58 64 0 
1 24 -81 0 
1 15 -90 0 
1 93 -42 0 
1 -43 -29 0 
1 14 38 0 
1 28 -86 0 
1 -13 -72 0 
1 -94 -78 0 
1 16 -80 0 
1 33 32 0 
1 82 72 0 
1 67 49 0 
1 -88 -53 0 
1 -27 -110 0 
1 13 82 0 
1 -55 -14 0 
1 70 -105 0 
1 -78 103 0 
1 28 -75 0 
1 46 71 0 
1 -60 -51 0 
1 48 52 0 
1 33 -93 0 
1 30 85 0 
1 42 67 0 
1 -37 -26 0 
1 21 -107 0 
1 -99 63 0 
1 86 25 0 
1 -80 83 0 
1 -65 -37 0 
1 -95 69 0 
1 36 -109 0 
1 23 36 0 
1 22 -88 0 
1 60 52 0 
1 22 55 0 
1 66 -92 0 
1 -6 -77 0 
1 38 7 0 
1 -78 -27 0 
1 -94 34 0 
1 8 92 0 
1 23 96 0 
1 -55 -33 0 
1 -80 37 0 
1 92 47 0 
1 79 72 0 
1 -51 -13 0 
1 -71 -21 0 
1 -49 -67 0 
1 -17 3 0 
1 -65 84 0 
1 98 41 0 
1 -28 -56 0 
1 -3 -42 0 
1 -28 32 0 
1 67 42 0 
1 -57 -60 0 
1 36 -53 0 
1 -67 -101 0 
1 -103 21 0 
1 -8 -110 0 
1 101 -108 0 
1 -68 29 0 
1 -14 -48 0 
1 36 65 0 
1 60 6 0 
1 68 -86 0 
1 7 100 0 
1 -65 -13 0 
1 14 -99 0 
1 34 -10 0 
1 -46 74 0 
1 89 -42 0 
1 -5 91 0 
1 107 104 0 
1 -47 -59 0 
1 -83 60 0 
1 102 93 0 
1 -21 -19 0 
1 -51 72 0 
1 104 77 0 
1 52 -36 0 
1 -68 -48 0 
1 103 32 0 
1 44 -97 0 
1 -50 101 0 
1 -37 -78 0 
1 -52 30 0 
1 -57 -37 0 
1 -49 -23 0 
1 -106 -73 0 
1 -74 88 0 
1 56 7 0 
1 16 -40 0 
1 -71 33 0 
1 -38 95 0 
1 84 -60 0 
1 -51 -29 0 
1 68 -60 0 
1 78 -51 0 
1 -94 35 0 
1 97 89 0 
1 44 -34 0 
1 88 -10 0 
1 -79 15 0 
1 -14 95 0 
1 -107 72 0 
1 13 45 0 
1 -36 -49 0 
1 -47 -41 0 
1 16 15 0 
1 82 -72 0 
1 -20 84 0 
1 33 -11 0 
1 23 -80 0 
1 -51 11 0 
1 -55 -27 0 
1 74 73 0 
1 -38 -46 0 
1 -86 85 0 
1 105 -17 0 
1 31 84 0 
1 9 47 0 
1 -1 -14 0 
1 24 -35 0 
1 -98 -77 0 
1 37 59 0 
1 89 -6 0 
1 108 27 0 
1 -36 -3 0 
1 -104 85 0 
1 51 -100 0 
